param n := 120;
param c := 10000
param : V : p w :=
   0	  30	 433
   1	  80	 260
   2	  89	 307
   3	  72	 493
   4	  19	 252
   5	  63	 255
   6	   9	 415
   7	  40	 280
   8	  13	 305
   9	  77	 457
  10	  37	 253
  11	  80	 290
  12	  21	 491
  13	  23	 251
  14	  55	 258
  15	  40	 375
  16	   6	 254
  17	  57	 371
  18	  77	 402
  19	  23	 289
  20	  94	 309
  21	  58	 410
  22	  56	 275
  23	  84	 315
  24	  17	 393
  25	   8	 275
  26	  85	 332
  27	  42	 462
  28	  53	 259
  29	  50	 279
  30	  16	 414
  31	  96	 254
  32	  10	 332
  33	  49	 355
  34	  18	 312
  35	  19	 333
  36	  49	 474
  37	  76	 258
  38	  20	 268
  39	  14	 420
  40	  12	 282
  41	  86	 298
  42	  41	 453
  43	  40	 272
  44	  50	 275
  45	  58	 408
  46	  62	 289
  47	  23	 303
  48	  31	 411
  49	  13	 260
  50	  63	 329
  51	  81	 363
  52	  64	 303
  53	  71	 334
  54	  13	 447
  55	  22	 255
  56	   7	 298
  57	  50	 471
  58	  68	 256
  59	  36	 273
  60	  10	 499
  61	  14	 250
  62	  57	 251
  63	  84	 424
  64	  67	 277
  65	  85	 299
  66	  81	 465
  67	  11	 257
  68	  38	 278
  69	  69	 373
  70	  77	 269
  71	  81	 358
  72	  43	 494
  73	  11	 250
  74	  70	 256
  75	  51	 413
  76	  54	 281
  77	  68	 306
  78	   6	 462
  79	  74	 257
  80	  34	 281
  81	   5	 435
  82	  22	 280
  83	  73	 285
  84	  69	 480
  85	  16	 250
  86	  16	 270
  87	  93	 389
  88	  78	 271
  89	  98	 340
  90	  34	 462
  91	  43	 254
  92	  69	 284
  93	  44	 469
  94	  56	 259
  95	  61	 272
  96	  82	 351
  97	  63	 291
  98	  33	 358
  99	  40	 389
 100	  28	 268
 101	  35	 343
 102	  42	 383
 103	  74	 282
 104	  27	 335
 105	  39	 394
 106	  52	 288
 107	   9	 318
 108	  62	 393
 109	  17	 258
 110	  41	 349
 111	   4	 482
 112	   4	 257
 113	  99	 261
 114	  13	 363
 115	  80	 282
 116	  17	 355
 117	  73	 423
 118	  34	 264
 119	  64	 313
;

set E :=
   0	   4
   0	   6
   0	  12
   0	  15
   0	  16
   0	  17
   0	  18
   0	  19
   0	  21
   0	  23
   0	  33
   0	  34
   0	  37
   0	  38
   0	  42
   0	  43
   0	  45
   0	  46
   0	  47
   0	  57
   0	  59
   0	  66
   0	  67
   0	  69
   0	  70
   0	  75
   0	  76
   0	  77
   0	  78
   0	  82
   0	  85
   0	  92
   0	  95
   0	  97
   0	  98
   0	 100
   0	 103
   0	 104
   0	 106
   0	 108
   0	 109
   0	 112
   0	 114
   0	 118
   0	 119
   1	   3
   1	   4
   1	   5
   1	   6
   1	  10
   1	  15
   1	  17
   1	  19
   1	  21
   1	  23
   1	  24
   1	  29
   1	  33
   1	  37
   1	  38
   1	  40
   1	  41
   1	  43
   1	  44
   1	  47
   1	  48
   1	  55
   1	  59
   1	  63
   1	  66
   1	  69
   1	  71
   1	  75
   1	  76
   1	  77
   1	  78
   1	  79
   1	  81
   1	  83
   1	  84
   1	  85
   1	  94
   1	  95
   1	  96
   1	 103
   1	 104
   1	 106
   1	 111
   1	 115
   1	 116
   2	   4
   2	   7
   2	   8
   2	  10
   2	  11
   2	  12
   2	  15
   2	  16
   2	  17
   2	  18
   2	  21
   2	  28
   2	  30
   2	  33
   2	  41
   2	  46
   2	  47
   2	  48
   2	  49
   2	  52
   2	  54
   2	  56
   2	  57
   2	  58
   2	  60
   2	  62
   2	  63
   2	  64
   2	  69
   2	  75
   2	  78
   2	  79
   2	  85
   2	  86
   2	  87
   2	  88
   2	  93
   2	  94
   2	  96
   2	  97
   2	  99
   2	 100
   2	 103
   2	 106
   2	 107
   2	 109
   2	 110
   2	 115
   2	 117
   2	 119
   3	   5
   3	   6
   3	   7
   3	   9
   3	  12
   3	  14
   3	  18
   3	  20
   3	  28
   3	  31
   3	  32
   3	  36
   3	  37
   3	  44
   3	  45
   3	  46
   3	  47
   3	  48
   3	  51
   3	  52
   3	  53
   3	  59
   3	  61
   3	  62
   3	  63
   3	  65
   3	  66
   3	  86
   3	  88
   3	  90
   3	  92
   3	  93
   3	  94
   3	  95
   3	  96
   3	  98
   3	  99
   3	 102
   3	 105
   3	 106
   3	 107
   3	 109
   3	 111
   3	 114
   4	   9
   4	  12
   4	  18
   4	  21
   4	  24
   4	  26
   4	  27
   4	  29
   4	  35
   4	  36
   4	  40
   4	  42
   4	  45
   4	  47
   4	  50
   4	  51
   4	  56
   4	  66
   4	  67
   4	  69
   4	  70
   4	  72
   4	  73
   4	  75
   4	  78
   4	  81
   4	  82
   4	  83
   4	  86
   4	  87
   4	  94
   4	  97
   4	  99
   4	 101
   4	 110
   4	 111
   4	 113
   4	 116
   4	 118
   4	 119
   5	   6
   5	   7
   5	  12
   5	  14
   5	  17
   5	  18
   5	  26
   5	  29
   5	  30
   5	  32
   5	  36
   5	  41
   5	  43
   5	  44
   5	  48
   5	  49
   5	  52
   5	  57
   5	  58
   5	  59
   5	  60
   5	  61
   5	  64
   5	  67
   5	  70
   5	  71
   5	  73
   5	  77
   5	  79
   5	  86
   5	  89
   5	  90
   5	  91
   5	  92
   5	  93
   5	  96
   5	  97
   5	  98
   5	  99
   5	 102
   5	 104
   5	 105
   5	 107
   5	 109
   5	 117
   6	   8
   6	   9
   6	  13
   6	  14
   6	  16
   6	  20
   6	  22
   6	  23
   6	  29
   6	  33
   6	  37
   6	  41
   6	  42
   6	  43
   6	  45
   6	  46
   6	  47
   6	  48
   6	  49
   6	  51
   6	  52
   6	  57
   6	  60
   6	  62
   6	  66
   6	  67
   6	  68
   6	  72
   6	  80
   6	  81
   6	  84
   6	  85
   6	  87
   6	  88
   6	  90
   6	  91
   6	  94
   6	  95
   6	  98
   6	 101
   6	 103
   6	 104
   6	 106
   6	 107
   6	 108
   6	 115
   7	   8
   7	  12
   7	  15
   7	  17
   7	  18
   7	  21
   7	  23
   7	  25
   7	  27
   7	  29
   7	  30
   7	  31
   7	  32
   7	  33
   7	  35
   7	  36
   7	  37
   7	  40
   7	  44
   7	  49
   7	  52
   7	  54
   7	  55
   7	  58
   7	  59
   7	  62
   7	  71
   7	  72
   7	  73
   7	  75
   7	  76
   7	  81
   7	  82
   7	  88
   7	  89
   7	  97
   7	  98
   7	  99
   7	 101
   7	 103
   7	 104
   7	 111
   7	 112
   7	 113
   7	 118
   7	 119
   8	   9
   8	  10
   8	  11
   8	  13
   8	  18
   8	  22
   8	  27
   8	  28
   8	  29
   8	  30
   8	  33
   8	  38
   8	  40
   8	  42
   8	  46
   8	  53
   8	  54
   8	  55
   8	  56
   8	  59
   8	  62
   8	  63
   8	  67
   8	  68
   8	  69
   8	  75
   8	  80
   8	  81
   8	  82
   8	  84
   8	  85
   8	  87
   8	  88
   8	  90
   8	  94
   8	  97
   8	  98
   8	 100
   8	 102
   8	 111
   8	 113
   8	 114
   8	 116
   8	 117
   9	  10
   9	  12
   9	  14
   9	  20
   9	  22
   9	  23
   9	  24
   9	  29
   9	  31
   9	  43
   9	  47
   9	  48
   9	  49
   9	  51
   9	  53
   9	  59
   9	  60
   9	  61
   9	  64
   9	  67
   9	  69
   9	  71
   9	  72
   9	  73
   9	  81
   9	  87
   9	  88
   9	  89
   9	  90
   9	  92
   9	  94
   9	  97
   9	 101
   9	 103
   9	 108
   9	 111
   9	 117
   9	 118
   9	 119
  10	  12
  10	  13
  10	  19
  10	  20
  10	  24
  10	  27
  10	  30
  10	  31
  10	  38
  10	  42
  10	  44
  10	  45
  10	  48
  10	  49
  10	  50
  10	  51
  10	  52
  10	  55
  10	  56
  10	  57
  10	  59
  10	  61
  10	  63
  10	  65
  10	  67
  10	  68
  10	  74
  10	  75
  10	  77
  10	  78
  10	  85
  10	  96
  10	 100
  10	 114
  10	 117
  10	 119
  11	  13
  11	  14
  11	  18
  11	  20
  11	  22
  11	  24
  11	  25
  11	  26
  11	  30
  11	  31
  11	  32
  11	  38
  11	  40
  11	  41
  11	  43
  11	  46
  11	  48
  11	  49
  11	  50
  11	  51
  11	  52
  11	  53
  11	  56
  11	  58
  11	  59
  11	  61
  11	  63
  11	  65
  11	  68
  11	  69
  11	  70
  11	  71
  11	  72
  11	  77
  11	  80
  11	  83
  11	  86
  11	  87
  11	  88
  11	  90
  11	  91
  11	  93
  11	  94
  11	  96
  11	  97
  11	 102
  11	 105
  11	 107
  11	 110
  11	 115
  11	 119
  12	  13
  12	  14
  12	  16
  12	  18
  12	  22
  12	  24
  12	  25
  12	  26
  12	  29
  12	  31
  12	  32
  12	  36
  12	  40
  12	  41
  12	  43
  12	  45
  12	  47
  12	  48
  12	  51
  12	  52
  12	  53
  12	  56
  12	  61
  12	  62
  12	  65
  12	  68
  12	  70
  12	  73
  12	  74
  12	  75
  12	  77
  12	  78
  12	  83
  12	  86
  12	  90
  12	  91
  12	  94
  12	  96
  12	 100
  12	 105
  12	 112
  12	 114
  12	 116
  13	  18
  13	  24
  13	  25
  13	  26
  13	  29
  13	  31
  13	  33
  13	  34
  13	  35
  13	  36
  13	  40
  13	  41
  13	  44
  13	  48
  13	  50
  13	  53
  13	  55
  13	  56
  13	  57
  13	  59
  13	  60
  13	  63
  13	  64
  13	  65
  13	  67
  13	  70
  13	  71
  13	  73
  13	  74
  13	  76
  13	  77
  13	  78
  13	  79
  13	  82
  13	  84
  13	  86
  13	 103
  13	 108
  13	 110
  13	 113
  13	 114
  13	 116
  13	 117
  13	 118
  14	  19
  14	  20
  14	  22
  14	  29
  14	  31
  14	  32
  14	  36
  14	  37
  14	  39
  14	  44
  14	  46
  14	  47
  14	  51
  14	  60
  14	  62
  14	  65
  14	  70
  14	  74
  14	  75
  14	  78
  14	  81
  14	  84
  14	  94
  14	  96
  14	  98
  14	  99
  14	 108
  14	 110
  14	 111
  14	 113
  14	 116
  15	  16
  15	  19
  15	  21
  15	  22
  15	  23
  15	  26
  15	  27
  15	  29
  15	  31
  15	  32
  15	  34
  15	  39
  15	  40
  15	  43
  15	  45
  15	  56
  15	  57
  15	  59
  15	  61
  15	  64
  15	  66
  15	  68
  15	  76
  15	  79
  15	  81
  15	  83
  15	  85
  15	  88
  15	  90
  15	  91
  15	  92
  15	  95
  15	  97
  15	  98
  15	  99
  15	 102
  15	 104
  15	 107
  15	 112
  15	 113
  15	 114
  15	 115
  16	  18
  16	  19
  16	  23
  16	  26
  16	  31
  16	  34
  16	  35
  16	  38
  16	  42
  16	  45
  16	  46
  16	  48
  16	  54
  16	  56
  16	  58
  16	  59
  16	  60
  16	  62
  16	  74
  16	  79
  16	  80
  16	  81
  16	  82
  16	  83
  16	  85
  16	  88
  16	  91
  16	  92
  16	  95
  16	  96
  16	  97
  16	  98
  16	  99
  16	 100
  16	 101
  16	 102
  16	 106
  16	 109
  16	 111
  16	 112
  16	 113
  16	 118
  16	 119
  17	  22
  17	  23
  17	  25
  17	  26
  17	  28
  17	  29
  17	  30
  17	  32
  17	  33
  17	  34
  17	  36
  17	  37
  17	  40
  17	  42
  17	  43
  17	  45
  17	  47
  17	  48
  17	  49
  17	  53
  17	  54
  17	  56
  17	  62
  17	  63
  17	  67
  17	  71
  17	  74
  17	  76
  17	  78
  17	  79
  17	  80
  17	  81
  17	  86
  17	  90
  17	  95
  17	  96
  17	  97
  17	 100
  17	 103
  17	 104
  17	 105
  17	 106
  17	 108
  17	 109
  17	 110
  17	 111
  17	 116
  17	 118
  18	  21
  18	  22
  18	  23
  18	  24
  18	  26
  18	  29
  18	  30
  18	  35
  18	  37
  18	  39
  18	  43
  18	  44
  18	  47
  18	  49
  18	  50
  18	  52
  18	  54
  18	  59
  18	  60
  18	  62
  18	  67
  18	  68
  18	  69
  18	  70
  18	  73
  18	  75
  18	  78
  18	  79
  18	  81
  18	  82
  18	  84
  18	  91
  18	  92
  18	  94
  18	  96
  18	  98
  18	  99
  18	 100
  18	 101
  18	 106
  18	 112
  18	 113
  18	 115
  19	  20
  19	  21
  19	  24
  19	  25
  19	  26
  19	  28
  19	  32
  19	  35
  19	  36
  19	  39
  19	  43
  19	  44
  19	  46
  19	  49
  19	  51
  19	  54
  19	  58
  19	  62
  19	  64
  19	  65
  19	  68
  19	  70
  19	  71
  19	  72
  19	  75
  19	  78
  19	  81
  19	  82
  19	  84
  19	  87
  19	  90
  19	  91
  19	  95
  19	  96
  19	  97
  19	 100
  19	 102
  19	 103
  19	 107
  19	 115
  19	 116
  19	 117
  19	 118
  20	  21
  20	  23
  20	  25
  20	  27
  20	  29
  20	  32
  20	  33
  20	  35
  20	  36
  20	  37
  20	  38
  20	  39
  20	  41
  20	  45
  20	  46
  20	  48
  20	  49
  20	  52
  20	  53
  20	  54
  20	  57
  20	  58
  20	  61
  20	  62
  20	  64
  20	  68
  20	  69
  20	  71
  20	  80
  20	  82
  20	  87
  20	  93
  20	  98
  20	 100
  20	 104
  20	 105
  20	 107
  20	 109
  20	 110
  20	 111
  21	  24
  21	  25
  21	  28
  21	  30
  21	  36
  21	  37
  21	  39
  21	  40
  21	  42
  21	  45
  21	  49
  21	  51
  21	  53
  21	  58
  21	  63
  21	  65
  21	  70
  21	  73
  21	  75
  21	  76
  21	  83
  21	  84
  21	  85
  21	  87
  21	  88
  21	  90
  21	 101
  21	 104
  21	 105
  21	 108
  21	 114
  21	 115
  21	 117
  22	  23
  22	  24
  22	  25
  22	  29
  22	  33
  22	  34
  22	  35
  22	  37
  22	  40
  22	  44
  22	  53
  22	  54
  22	  55
  22	  57
  22	  58
  22	  68
  22	  73
  22	  78
  22	  81
  22	  84
  22	  86
  22	  89
  22	  90
  22	  91
  22	  92
  22	  96
  22	  97
  22	 105
  22	 107
  22	 109
  22	 110
  22	 114
  22	 116
  22	 117
  22	 118
  22	 119
  23	  24
  23	  26
  23	  28
  23	  29
  23	  30
  23	  33
  23	  34
  23	  35
  23	  38
  23	  41
  23	  46
  23	  48
  23	  52
  23	  53
  23	  54
  23	  55
  23	  59
  23	  61
  23	  62
  23	  63
  23	  65
  23	  66
  23	  68
  23	  69
  23	  70
  23	  71
  23	  75
  23	  77
  23	  78
  23	  82
  23	  83
  23	  88
  23	  91
  23	  92
  23	  98
  23	 101
  23	 102
  23	 103
  23	 104
  23	 105
  23	 106
  23	 107
  23	 109
  23	 111
  23	 112
  23	 114
  23	 116
  23	 118
  23	 119
  24	  28
  24	  29
  24	  32
  24	  34
  24	  38
  24	  39
  24	  44
  24	  45
  24	  46
  24	  50
  24	  53
  24	  56
  24	  57
  24	  58
  24	  62
  24	  63
  24	  65
  24	  71
  24	  73
  24	  75
  24	  76
  24	  81
  24	  83
  24	  89
  24	  92
  24	  94
  24	 103
  24	 110
  24	 112
  24	 113
  24	 118
  25	  26
  25	  27
  25	  29
  25	  35
  25	  37
  25	  40
  25	  42
  25	  44
  25	  45
  25	  47
  25	  50
  25	  52
  25	  55
  25	  56
  25	  57
  25	  62
  25	  63
  25	  64
  25	  67
  25	  69
  25	  72
  25	  80
  25	  81
  25	  83
  25	  85
  25	  86
  25	  87
  25	  88
  25	  90
  25	  93
  25	  99
  25	 101
  25	 102
  25	 106
  25	 111
  25	 113
  25	 114
  25	 117
  25	 118
  26	  27
  26	  30
  26	  33
  26	  35
  26	  36
  26	  38
  26	  39
  26	  47
  26	  52
  26	  56
  26	  57
  26	  59
  26	  65
  26	  67
  26	  72
  26	  75
  26	  80
  26	  81
  26	  83
  26	  86
  26	  88
  26	  92
  26	  98
  26	 100
  26	 101
  26	 109
  26	 112
  26	 113
  26	 116
  26	 119
  27	  34
  27	  41
  27	  44
  27	  48
  27	  54
  27	  55
  27	  58
  27	  59
  27	  62
  27	  63
  27	  65
  27	  68
  27	  69
  27	  71
  27	  73
  27	  77
  27	  79
  27	  81
  27	  86
  27	  90
  27	  93
  27	  96
  27	  97
  27	  98
  27	 100
  27	 105
  27	 108
  27	 113
  27	 117
  28	  29
  28	  31
  28	  32
  28	  33
  28	  37
  28	  41
  28	  43
  28	  44
  28	  45
  28	  48
  28	  52
  28	  53
  28	  56
  28	  57
  28	  58
  28	  61
  28	  64
  28	  70
  28	  72
  28	  77
  28	  79
  28	  80
  28	  83
  28	  86
  28	  90
  28	  91
  28	  92
  28	  93
  28	  97
  28	  98
  28	  99
  28	 102
  28	 107
  28	 109
  28	 111
  28	 112
  28	 113
  28	 118
  28	 119
  29	  33
  29	  34
  29	  35
  29	  36
  29	  37
  29	  39
  29	  40
  29	  41
  29	  45
  29	  46
  29	  47
  29	  48
  29	  50
  29	  51
  29	  57
  29	  60
  29	  67
  29	  71
  29	  75
  29	  77
  29	  82
  29	  85
  29	  86
  29	  88
  29	  89
  29	  91
  29	  94
  29	  96
  29	 102
  29	 103
  29	 107
  29	 108
  29	 110
  29	 115
  30	  31
  30	  33
  30	  34
  30	  36
  30	  37
  30	  40
  30	  42
  30	  45
  30	  46
  30	  47
  30	  53
  30	  61
  30	  67
  30	  68
  30	  69
  30	  70
  30	  73
  30	  77
  30	  80
  30	  82
  30	  84
  30	  85
  30	  87
  30	  88
  30	  91
  30	  92
  30	  95
  30	  96
  30	  97
  30	 101
  30	 102
  30	 106
  30	 108
  30	 110
  30	 111
  30	 112
  30	 113
  30	 114
  30	 119
  31	  33
  31	  41
  31	  42
  31	  44
  31	  48
  31	  49
  31	  50
  31	  52
  31	  54
  31	  60
  31	  62
  31	  70
  31	  72
  31	  82
  31	  83
  31	  84
  31	  92
  31	  95
  31	  96
  31	 100
  31	 101
  31	 104
  31	 105
  31	 107
  31	 109
  31	 112
  31	 113
  31	 119
  32	  34
  32	  35
  32	  36
  32	  38
  32	  39
  32	  40
  32	  43
  32	  44
  32	  48
  32	  50
  32	  52
  32	  59
  32	  62
  32	  63
  32	  66
  32	  67
  32	  69
  32	  72
  32	  74
  32	  77
  32	  78
  32	  83
  32	  84
  32	  89
  32	  90
  32	  91
  32	  92
  32	  93
  32	  94
  32	  96
  32	  97
  32	  98
  32	 103
  32	 105
  32	 108
  32	 110
  32	 111
  32	 112
  32	 113
  32	 114
  32	 116
  32	 118
  32	 119
  33	  34
  33	  38
  33	  39
  33	  42
  33	  44
  33	  45
  33	  47
  33	  49
  33	  51
  33	  56
  33	  61
  33	  62
  33	  83
  33	  84
  33	  85
  33	  86
  33	  88
  33	  89
  33	  90
  33	  95
  33	  97
  33	  98
  33	  99
  33	 102
  33	 104
  33	 105
  33	 110
  33	 111
  33	 112
  33	 114
  33	 116
  33	 119
  34	  37
  34	  42
  34	  43
  34	  47
  34	  51
  34	  52
  34	  55
  34	  57
  34	  58
  34	  63
  34	  64
  34	  66
  34	  67
  34	  68
  34	  69
  34	  72
  34	  74
  34	  77
  34	  79
  34	  80
  34	  83
  34	  87
  34	  91
  34	  92
  34	  93
  34	  94
  34	  95
  34	  98
  34	 100
  34	 103
  34	 106
  34	 107
  34	 113
  34	 116
  34	 118
  35	  37
  35	  38
  35	  51
  35	  54
  35	  55
  35	  56
  35	  57
  35	  65
  35	  66
  35	  67
  35	  74
  35	  75
  35	  76
  35	  77
  35	  80
  35	  81
  35	  83
  35	  88
  35	  91
  35	  95
  35	  96
  35	  97
  35	  98
  35	 100
  35	 101
  35	 106
  35	 107
  35	 112
  35	 116
  35	 118
  36	  39
  36	  44
  36	  45
  36	  46
  36	  47
  36	  49
  36	  50
  36	  53
  36	  54
  36	  57
  36	  59
  36	  62
  36	  68
  36	  69
  36	  73
  36	  75
  36	  78
  36	  80
  36	  81
  36	  82
  36	  83
  36	  84
  36	  85
  36	  86
  36	  88
  36	  99
  36	 102
  36	 108
  36	 109
  36	 110
  36	 111
  36	 112
  36	 115
  36	 116
  37	  38
  37	  40
  37	  42
  37	  45
  37	  47
  37	  48
  37	  49
  37	  50
  37	  52
  37	  53
  37	  58
  37	  60
  37	  62
  37	  69
  37	  72
  37	  74
  37	  76
  37	  78
  37	  81
  37	  85
  37	  87
  37	  88
  37	  94
  37	  95
  37	  99
  37	 102
  37	 103
  37	 106
  37	 108
  37	 111
  37	 112
  37	 113
  37	 114
  38	  39
  38	  40
  38	  41
  38	  42
  38	  43
  38	  49
  38	  53
  38	  54
  38	  58
  38	  61
  38	  64
  38	  65
  38	  68
  38	  69
  38	  70
  38	  71
  38	  73
  38	  74
  38	  76
  38	  77
  38	  81
  38	  85
  38	  87
  38	  93
  38	  95
  38	  96
  38	  99
  38	 102
  38	 104
  38	 109
  38	 111
  38	 113
  38	 115
  38	 116
  38	 117
  38	 119
  39	  40
  39	  44
  39	  46
  39	  47
  39	  48
  39	  51
  39	  52
  39	  55
  39	  57
  39	  59
  39	  60
  39	  61
  39	  62
  39	  63
  39	  65
  39	  66
  39	  68
  39	  72
  39	  75
  39	  77
  39	  81
  39	  82
  39	  83
  39	  87
  39	  97
  39	  99
  39	 102
  39	 103
  39	 106
  39	 108
  39	 109
  39	 110
  39	 112
  39	 113
  39	 114
  39	 115
  39	 118
  39	 119
  40	  44
  40	  46
  40	  52
  40	  54
  40	  55
  40	  59
  40	  61
  40	  63
  40	  64
  40	  68
  40	  70
  40	  71
  40	  72
  40	  73
  40	  74
  40	  75
  40	  76
  40	  82
  40	  83
  40	  85
  40	  88
  40	  92
  40	  94
  40	  99
  40	 100
  40	 101
  40	 107
  40	 109
  40	 112
  40	 115
  40	 116
  40	 117
  41	  43
  41	  44
  41	  47
  41	  49
  41	  57
  41	  61
  41	  64
  41	  65
  41	  66
  41	  67
  41	  68
  41	  71
  41	  72
  41	  75
  41	  76
  41	  77
  41	  78
  41	  81
  41	  89
  41	  92
  41	  95
  41	  96
  41	  97
  41	  99
  41	 101
  41	 104
  41	 105
  41	 106
  41	 111
  41	 115
  41	 116
  41	 118
  42	  43
  42	  44
  42	  47
  42	  48
  42	  53
  42	  54
  42	  55
  42	  56
  42	  57
  42	  61
  42	  62
  42	  64
  42	  65
  42	  69
  42	  70
  42	  73
  42	  76
  42	  80
  42	  90
  42	  91
  42	  95
  42	  98
  42	  99
  42	 101
  42	 102
  42	 107
  42	 109
  42	 111
  42	 113
  42	 116
  42	 118
  43	  48
  43	  50
  43	  52
  43	  55
  43	  60
  43	  61
  43	  62
  43	  68
  43	  69
  43	  72
  43	  79
  43	  80
  43	  87
  43	  88
  43	  90
  43	  98
  43	 100
  43	 103
  43	 105
  43	 108
  43	 109
  43	 111
  43	 112
  43	 115
  43	 117
  43	 119
  44	  47
  44	  48
  44	  50
  44	  51
  44	  52
  44	  57
  44	  60
  44	  61
  44	  65
  44	  72
  44	  74
  44	  76
  44	  81
  44	  88
  44	  91
  44	  93
  44	  95
  44	  98
  44	 104
  44	 107
  44	 108
  44	 110
  44	 114
  44	 119
  45	  46
  45	  51
  45	  54
  45	  55
  45	  58
  45	  59
  45	  60
  45	  63
  45	  64
  45	  66
  45	  67
  45	  68
  45	  70
  45	  71
  45	  73
  45	  76
  45	  78
  45	  79
  45	  80
  45	  86
  45	  88
  45	  89
  45	  98
  45	  99
  45	 100
  45	 101
  45	 106
  45	 107
  45	 108
  45	 109
  45	 111
  45	 112
  45	 113
  45	 115
  45	 118
  46	  47
  46	  48
  46	  52
  46	  53
  46	  55
  46	  56
  46	  59
  46	  62
  46	  63
  46	  68
  46	  69
  46	  72
  46	  74
  46	  79
  46	  81
  46	  82
  46	  83
  46	  86
  46	  89
  46	  90
  46	  91
  46	  94
  46	  95
  46	  98
  46	 101
  46	 104
  46	 107
  46	 110
  46	 112
  46	 113
  46	 116
  46	 118
  47	  49
  47	  51
  47	  54
  47	  55
  47	  56
  47	  58
  47	  61
  47	  64
  47	  65
  47	  67
  47	  68
  47	  69
  47	  71
  47	  78
  47	  79
  47	  82
  47	  86
  47	  87
  47	  91
  47	  93
  47	  97
  47	  99
  47	 103
  47	 104
  47	 105
  47	 106
  47	 109
  47	 110
  47	 112
  47	 113
  48	  50
  48	  51
  48	  53
  48	  54
  48	  61
  48	  62
  48	  64
  48	  65
  48	  66
  48	  69
  48	  71
  48	  73
  48	  74
  48	  75
  48	  78
  48	  79
  48	  87
  48	  89
  48	  90
  48	  93
  48	  94
  48	  96
  48	  98
  48	  99
  48	 100
  48	 102
  48	 108
  48	 110
  48	 116
  49	  52
  49	  53
  49	  60
  49	  62
  49	  64
  49	  65
  49	  66
  49	  68
  49	  70
  49	  72
  49	  77
  49	  78
  49	  79
  49	  80
  49	  81
  49	  82
  49	  86
  49	  87
  49	  89
  49	  91
  49	  93
  49	  94
  49	  95
  49	  99
  49	 101
  49	 102
  49	 104
  49	 108
  49	 111
  49	 113
  49	 116
  49	 118
  49	 119
  50	  55
  50	  56
  50	  57
  50	  58
  50	  63
  50	  66
  50	  67
  50	  71
  50	  73
  50	  74
  50	  77
  50	  81
  50	  82
  50	  85
  50	  86
  50	  90
  50	  92
  50	  95
  50	  97
  50	 100
  50	 103
  50	 104
  50	 106
  50	 111
  50	 116
  50	 117
  51	  52
  51	  59
  51	  60
  51	  63
  51	  64
  51	  66
  51	  68
  51	  73
  51	  74
  51	  76
  51	  77
  51	  78
  51	  81
  51	  89
  51	  90
  51	  91
  51	  96
  51	  99
  51	 100
  51	 101
  51	 102
  51	 106
  51	 113
  51	 114
  51	 115
  51	 116
  51	 118
  52	  53
  52	  56
  52	  57
  52	  61
  52	  66
  52	  67
  52	  75
  52	  77
  52	  87
  52	  90
  52	  91
  52	  92
  52	  93
  52	  99
  52	 103
  52	 106
  52	 111
  52	 112
  52	 113
  52	 117
  52	 118
  52	 119
  53	  55
  53	  58
  53	  59
  53	  67
  53	  68
  53	  69
  53	  72
  53	  73
  53	  74
  53	  76
  53	  77
  53	  83
  53	  85
  53	  86
  53	  88
  53	  89
  53	  91
  53	  95
  53	  98
  53	 101
  53	 110
  53	 113
  53	 114
  53	 115
  53	 116
  53	 119
  54	  56
  54	  57
  54	  59
  54	  63
  54	  65
  54	  66
  54	  67
  54	  69
  54	  70
  54	  72
  54	  73
  54	  77
  54	  82
  54	  83
  54	  84
  54	  86
  54	  87
  54	  88
  54	  90
  54	  91
  54	  92
  54	  93
  54	  94
  54	  95
  54	  96
  54	  97
  54	 102
  54	 103
  54	 105
  54	 107
  54	 108
  54	 110
  54	 111
  54	 115
  54	 118
  54	 119
  55	  58
  55	  62
  55	  66
  55	  70
  55	  71
  55	  81
  55	  82
  55	  83
  55	  84
  55	  87
  55	  88
  55	  90
  55	  92
  55	  96
  55	  99
  55	 101
  55	 103
  55	 104
  55	 105
  55	 106
  55	 109
  55	 115
  55	 116
  55	 119
  56	  59
  56	  60
  56	  61
  56	  63
  56	  64
  56	  66
  56	  68
  56	  70
  56	  74
  56	  78
  56	  79
  56	  81
  56	  82
  56	  84
  56	  87
  56	  89
  56	  93
  56	  94
  56	  98
  56	 104
  56	 110
  56	 112
  56	 115
  56	 116
  56	 117
  56	 118
  56	 119
  57	  59
  57	  60
  57	  61
  57	  63
  57	  64
  57	  65
  57	  69
  57	  80
  57	  84
  57	  85
  57	  87
  57	  88
  57	  89
  57	  90
  57	  94
  57	  96
  57	  97
  57	  99
  57	 102
  57	 103
  57	 105
  57	 109
  57	 113
  57	 114
  57	 115
  57	 116
  57	 119
  58	  64
  58	  68
  58	  69
  58	  72
  58	  75
  58	  78
  58	  83
  58	  84
  58	  85
  58	  86
  58	  87
  58	  89
  58	  90
  58	  92
  58	  98
  58	  99
  58	 100
  58	 104
  58	 105
  58	 108
  58	 111
  58	 113
  58	 115
  58	 119
  59	  60
  59	  62
  59	  63
  59	  65
  59	  68
  59	  71
  59	  73
  59	  74
  59	  77
  59	  78
  59	  81
  59	  84
  59	  86
  59	  87
  59	  88
  59	  89
  59	  92
  59	  93
  59	  94
  59	  99
  59	 100
  59	 102
  59	 103
  59	 111
  59	 112
  59	 116
  59	 118
  60	  67
  60	  68
  60	  69
  60	  70
  60	  72
  60	  81
  60	  83
  60	  86
  60	  92
  60	  94
  60	  96
  60	  99
  60	 104
  60	 105
  60	 110
  60	 116
  60	 117
  60	 119
  61	  66
  61	  67
  61	  69
  61	  72
  61	  75
  61	  76
  61	  78
  61	  79
  61	  80
  61	  82
  61	  84
  61	  87
  61	  92
  61	  94
  61	  95
  61	  97
  61	  98
  61	 102
  61	 103
  61	 106
  61	 107
  61	 108
  61	 110
  61	 113
  61	 115
  61	 118
  62	  67
  62	  72
  62	  73
  62	  74
  62	  75
  62	  76
  62	  79
  62	  87
  62	  88
  62	  92
  62	  94
  62	  96
  62	 100
  62	 101
  62	 106
  62	 107
  62	 108
  62	 112
  62	 114
  62	 115
  62	 118
  62	 119
  63	  67
  63	  68
  63	  71
  63	  79
  63	  80
  63	  82
  63	  88
  63	  89
  63	  90
  63	  91
  63	  92
  63	  93
  63	  94
  63	  95
  63	  97
  63	  99
  63	 101
  63	 105
  63	 108
  63	 110
  63	 111
  63	 113
  63	 117
  64	  68
  64	  70
  64	  71
  64	  73
  64	  77
  64	  78
  64	  86
  64	  87
  64	  88
  64	  91
  64	  92
  64	  95
  64	  96
  64	  97
  64	 100
  64	 101
  64	 102
  64	 105
  64	 106
  64	 110
  64	 115
  64	 118
  65	  68
  65	  69
  65	  73
  65	  75
  65	  76
  65	  77
  65	  79
  65	  83
  65	  88
  65	  90
  65	  93
  65	  94
  65	  96
  65	  98
  65	 100
  65	 101
  65	 103
  65	 105
  65	 106
  65	 107
  65	 108
  65	 110
  65	 113
  65	 115
  65	 118
  66	  69
  66	  70
  66	  73
  66	  74
  66	  75
  66	  78
  66	  82
  66	  88
  66	  92
  66	  95
  66	 100
  66	 102
  66	 105
  66	 107
  66	 108
  66	 109
  66	 114
  66	 115
  67	  68
  67	  71
  67	  72
  67	  75
  67	  77
  67	  78
  67	  81
  67	  82
  67	  90
  67	  99
  67	 100
  67	 102
  67	 103
  67	 104
  67	 105
  67	 106
  67	 109
  67	 110
  67	 111
  67	 112
  67	 113
  67	 115
  67	 118
  68	  69
  68	  70
  68	  71
  68	  72
  68	  74
  68	  76
  68	  77
  68	  78
  68	  87
  68	  88
  68	  91
  68	  92
  68	  94
  68	  96
  68	  97
  68	  99
  68	 100
  68	 103
  68	 106
  68	 113
  68	 117
  69	  71
  69	  73
  69	  74
  69	  77
  69	  82
  69	  83
  69	  84
  69	  86
  69	  88
  69	  89
  69	  90
  69	  91
  69	  93
  69	 105
  69	 108
  69	 109
  69	 111
  69	 112
  69	 115
  69	 116
  69	 118
  70	  78
  70	  80
  70	  81
  70	  82
  70	  86
  70	  90
  70	  92
  70	  93
  70	  94
  70	  96
  70	  99
  70	 110
  70	 111
  70	 118
  71	  72
  71	  73
  71	  75
  71	  76
  71	  78
  71	  81
  71	  82
  71	  83
  71	  85
  71	  87
  71	  88
  71	  89
  71	  91
  71	  92
  71	  96
  71	  97
  71	 101
  71	 102
  71	 104
  71	 106
  71	 108
  71	 109
  71	 112
  71	 117
  72	  74
  72	  76
  72	  77
  72	  78
  72	  82
  72	  83
  72	  85
  72	  87
  72	  88
  72	  89
  72	  90
  72	  95
  72	  96
  72	 100
  72	 103
  72	 104
  72	 107
  72	 108
  72	 111
  72	 112
  72	 114
  72	 119
  73	  74
  73	  75
  73	  77
  73	  85
  73	  88
  73	  90
  73	  93
  73	  96
  73	 100
  73	 103
  73	 104
  73	 105
  73	 106
  73	 107
  73	 108
  73	 109
  73	 110
  73	 115
  73	 116
  74	  78
  74	  79
  74	  80
  74	  81
  74	  83
  74	  84
  74	  85
  74	  87
  74	  89
  74	  97
  74	  98
  74	  99
  74	 100
  74	 102
  74	 103
  74	 104
  74	 109
  74	 110
  74	 111
  74	 112
  74	 115
  74	 117
  74	 119
  75	  78
  75	  81
  75	  83
  75	  84
  75	  87
  75	  89
  75	  90
  75	  92
  75	  95
  75	  96
  75	  99
  75	 100
  75	 101
  75	 105
  75	 111
  75	 112
  75	 114
  75	 115
  75	 118
  75	 119
  76	  79
  76	  82
  76	  84
  76	  85
  76	  87
  76	  89
  76	  95
  76	 105
  76	 106
  76	 110
  76	 112
  76	 114
  76	 116
  76	 117
  77	  78
  77	  81
  77	  85
  77	  87
  77	  90
  77	  92
  77	  95
  77	  98
  77	  99
  77	 100
  77	 104
  77	 108
  77	 117
  77	 119
  78	  84
  78	  85
  78	  89
  78	  90
  78	  93
  78	  94
  78	  97
  78	  99
  78	 101
  78	 107
  78	 108
  78	 111
  78	 118
  79	  80
  79	  81
  79	  85
  79	  86
  79	  91
  79	  93
  79	  94
  79	  96
  79	 100
  79	 102
  79	 104
  79	 108
  79	 111
  79	 112
  79	 113
  79	 116
  79	 119
  80	  82
  80	  87
  80	  96
  80	  98
  80	  99
  80	 100
  80	 102
  80	 103
  80	 105
  80	 108
  80	 110
  80	 112
  80	 114
  80	 115
  80	 119
  81	  85
  81	  87
  81	  89
  81	  90
  81	  93
  81	  94
  81	  95
  81	  96
  81	  97
  81	  99
  81	 101
  81	 102
  81	 108
  81	 114
  81	 118
  82	  83
  82	  84
  82	  86
  82	  87
  82	  90
  82	  91
  82	  92
  82	  93
  82	  94
  82	  95
  82	  96
  82	  99
  82	 100
  82	 102
  82	 107
  82	 108
  82	 109
  82	 110
  82	 111
  82	 113
  82	 117
  82	 119
  83	  84
  83	  89
  83	  90
  83	  93
  83	  97
  83	 102
  83	 103
  83	 108
  83	 110
  83	 114
  83	 115
  83	 116
  83	 118
  84	  87
  84	  90
  84	  92
  84	  94
  84	  95
  84	  97
  84	 102
  84	 103
  84	 104
  84	 105
  84	 107
  84	 110
  84	 112
  84	 113
  84	 114
  84	 115
  84	 118
  85	  95
  85	  98
  85	 100
  85	 102
  85	 104
  85	 107
  85	 108
  85	 109
  85	 110
  85	 114
  85	 115
  85	 118
  86	  87
  86	  90
  86	  94
  86	  95
  86	  97
  86	 103
  86	 104
  86	 105
  86	 106
  86	 108
  86	 109
  86	 111
  86	 116
  86	 119
  87	  88
  87	  90
  87	  91
  87	  92
  87	  94
  87	  98
  87	 100
  87	 103
  87	 104
  87	 106
  87	 107
  87	 109
  87	 110
  87	 112
  87	 113
  87	 114
  87	 117
  87	 118
  88	  90
  88	  98
  88	 100
  88	 105
  88	 106
  88	 107
  88	 108
  88	 109
  88	 110
  88	 117
  88	 118
  88	 119
  89	  92
  89	  99
  89	 100
  89	 103
  89	 104
  89	 105
  89	 107
  89	 110
  89	 114
  89	 115
  89	 116
  89	 117
  89	 119
  90	  93
  90	  95
  90	  96
  90	 100
  90	 101
  90	 103
  90	 105
  90	 107
  90	 108
  90	 109
  90	 113
  90	 114
  90	 115
  91	  96
  91	  97
  91	 100
  91	 102
  91	 103
  91	 106
  91	 109
  91	 110
  91	 113
  91	 114
  91	 118
  92	  93
  92	  97
  92	  98
  92	  99
  92	 100
  92	 104
  92	 105
  92	 106
  92	 107
  92	 109
  92	 110
  92	 111
  92	 114
  92	 118
  92	 119
  93	  97
  93	  99
  93	 103
  93	 105
  93	 107
  93	 109
  93	 110
  93	 111
  93	 114
  93	 117
  93	 118
  94	  98
  94	 100
  94	 101
  94	 111
  94	 112
  95	  97
  95	  99
  95	 101
  95	 102
  95	 103
  95	 104
  95	 105
  95	 106
  95	 108
  95	 109
  95	 113
  95	 114
  95	 119
  96	  97
  96	 101
  96	 102
  96	 110
  96	 111
  96	 118
  97	  98
  97	 101
  97	 102
  97	 103
  97	 104
  97	 105
  97	 111
  97	 113
  97	 118
  98	  99
  98	 102
  98	 105
  98	 106
  98	 111
  98	 112
  98	 113
  98	 117
  99	 100
  99	 102
  99	 103
  99	 105
  99	 109
  99	 110
  99	 113
  99	 115
  99	 116
  99	 117
  99	 118
  99	 119
 100	 104
 100	 107
 100	 108
 100	 109
 100	 110
 100	 111
 100	 112
 100	 117
 101	 103
 101	 104
 101	 105
 101	 109
 101	 111
 101	 114
 101	 117
 101	 118
 102	 104
 102	 105
 102	 107
 102	 108
 102	 110
 102	 119
 103	 105
 103	 106
 103	 111
 103	 112
 103	 115
 104	 106
 104	 107
 104	 108
 104	 112
 104	 115
 104	 116
 105	 106
 105	 109
 105	 110
 105	 113
 105	 114
 105	 115
 105	 116
 105	 117
 106	 107
 106	 110
 106	 113
 106	 116
 106	 119
 107	 108
 107	 109
 107	 110
 107	 111
 107	 115
 107	 118
 108	 109
 108	 110
 108	 114
 108	 115
 108	 116
 108	 117
 108	 118
 108	 119
 109	 110
 109	 112
 109	 116
 109	 117
 110	 112
 110	 114
 110	 117
 110	 119
 111	 118
 111	 119
 112	 117
 112	 119
 113	 115
 113	 119
 114	 115
 114	 116
 114	 118
 115	 117
 115	 118
 117	 119
 118	 119
;
